
Gurobi 10.0.1 (linux64) logging started Sat 12 Aug 2023 01:23:25 AM CDT

Set parameter LogFile to value "/home/dlcole3/graph_abstraction/plasmoexamples/SHP_serial/SHP_reserve_requirements/gurobi_logs/logfile11.log"
Set parameter NodefileStart to value 0.0005
Set parameter TimeLimit to value 36000
Gurobi Optimizer version 10.0.1 build v10.0.1rc0 (linux64)

CPU model: Intel(R) Xeon(R) CPU E5-2698 v4 @ 2.20GHz, instruction set [SSE2|AVX|AVX2]
Thread count: 40 physical cores, 80 logical processors, using up to 8 threads


Warning: excessive time spent in model updates.
Consider calling update less frequently.

Optimize a model with 1105538 rows, 641709 columns and 4644125 nonzeros
Model fingerprint: 0x931e5fa9
Variable types: 599982 continuous, 41727 integer (41727 binary)
Coefficient statistics:
  Matrix range     [5e-02, 2e+04]
  Objective range  [2e-01, 8e+04]
  Bounds range     [5e-02, 2e+04]
  RHS range        [2e-15, 7e+03]
Presolve removed 263141 rows and 109728 columns (presolve time = 5s) ...
Presolve removed 276861 rows and 116506 columns (presolve time = 10s) ...
Presolve removed 278957 rows and 119563 columns (presolve time = 15s) ...
Presolve removed 284710 rows and 124114 columns (presolve time = 20s) ...
Presolve removed 291537 rows and 124305 columns (presolve time = 25s) ...
Presolve removed 292277 rows and 125021 columns (presolve time = 30s) ...
Presolve removed 292317 rows and 125071 columns (presolve time = 35s) ...
Presolve removed 292317 rows and 125071 columns (presolve time = 40s) ...
Presolve removed 292617 rows and 125091 columns (presolve time = 45s) ...
Sparsify removed 203019 nonzeros (5%)
Presolve removed 292617 rows and 123380 columns
Presolve time: 47.94s
Presolved: 812921 rows, 518329 columns, 3977231 nonzeros
Variable types: 484636 continuous, 33693 integer (33629 binary)

Deterministic concurrent LP optimizer: primal simplex, dual simplex, and barrier
Showing barrier log only...

Root barrier log...

Elapsed ordering time = 5s
Elapsed ordering time = 17s
Elapsed ordering time = 21s
Elapsed ordering time = 25s
Elapsed ordering time = 31s
Elapsed ordering time = 35s
Elapsed ordering time = 40s
Elapsed ordering time = 45s
Elapsed ordering time = 46s
Elapsed ordering time = 50s
Elapsed ordering time = 55s
Elapsed ordering time = 59s
Elapsed ordering time = 60s
Elapsed ordering time = 65s
Ordering time: 69.90s

Barrier statistics:
 Dense cols : 214
 AA' NZ     : 2.386e+07
 Factor NZ  : 3.697e+08 (roughly 3.5 GB of memory)
 Factor Ops : 1.874e+12 (roughly 17 seconds per iteration)
 Threads    : 5

                  Objective                Residual
Iter       Primal          Dual         Primal    Dual     Compl     Time
   0  -2.23653887e+11 -1.80468375e+13  1.23e+04 8.49e+03  1.15e+08   143s
   1  -1.90392938e+11 -1.50988950e+13  1.08e+04 2.86e+07  9.37e+07   154s
   2  -1.29736698e+11 -1.24555331e+13  7.62e+03 1.36e+07  6.41e+07   169s
   3  -6.82448327e+10 -9.27473823e+12  4.39e+03 1.95e+06  3.63e+07   185s
   4  -1.99806002e+10 -3.37735295e+12  1.53e+03 2.09e+00  1.17e+07   202s
   5  -3.10962232e+09 -1.45477921e+12  5.33e+02 2.15e+00  3.88e+06   219s
   6   4.42407470e+09 -6.86784812e+11  1.20e+02 1.19e+00  9.82e+05   237s
   7   5.88273496e+09 -3.30360527e+11  3.82e+01 4.37e-01  3.32e+05   254s
   8   5.61233704e+09 -1.07097790e+11  1.29e+01 7.58e-02  9.35e+04   273s
   9   3.40448795e+09 -3.85285095e+10  3.86e+00 4.49e-02  2.89e+04   290s
  10   1.55247049e+09 -1.67414289e+10  1.69e+00 1.89e-02  1.18e+04   307s
  11   2.44614789e+08 -3.23583569e+09  1.66e-01 3.05e-03  2.07e+03   328s
  12   8.67291674e+07 -2.74258242e+08  2.54e-04 2.42e-04  2.10e+02   347s
  13   6.70753521e+07 -2.29532655e+07  6.03e-05 1.48e-04  5.24e+01   369s
  14   5.75453926e+07  1.69021272e+07  2.07e-05 1.38e-04  2.37e+01   389s
  15   5.26753189e+07  3.79845106e+07  9.74e-06 3.75e-05  8.55e+00   412s
  16   4.93542190e+07  4.36909655e+07  3.68e-06 2.34e-05  3.30e+00   430s
  17   4.82603801e+07  4.50087509e+07  2.11e-06 1.26e-05  1.89e+00   449s
  18   4.75412825e+07  4.58953161e+07  1.09e-06 4.60e-06  9.58e-01   468s
  19   4.73177394e+07  4.62245642e+07  7.99e-07 3.21e-06  6.36e-01   485s
  20   4.71298121e+07  4.63813325e+07  5.81e-07 2.33e-06  4.36e-01   503s
  21   4.69639494e+07  4.64854434e+07  3.73e-07 1.59e-06  2.79e-01   521s
  22   4.68552085e+07  4.65621155e+07  2.39e-07 9.25e-07  1.71e-01   538s
  23   4.68289806e+07  4.65830997e+07  2.05e-07 8.10e-07  1.43e-01   553s
  24   4.67893406e+07  4.66128746e+07  1.58e-07 4.66e-07  1.03e-01   569s
  25   4.67490361e+07  4.66252849e+07  1.25e-07 3.53e-07  7.21e-02   585s
  26   4.67253518e+07  4.66411117e+07  1.33e-07 2.07e-07  4.90e-02   604s
  27   4.67032137e+07  4.66527504e+07  9.96e-08 9.02e-08  2.94e-02   624s
  28   4.66850421e+07  4.66566184e+07  5.49e-07 5.45e-08  1.66e-02   647s
  29   4.66791745e+07  4.66580850e+07  6.59e-07 4.12e-08  1.23e-02   669s
  30   4.66749543e+07  4.66594767e+07  5.33e-07 3.02e-08  9.01e-03   688s
  31   4.66729216e+07  4.66597912e+07  4.55e-07 2.75e-08  7.65e-03   706s
  32   4.66702080e+07  4.66607075e+07  4.62e-07 1.97e-08  5.53e-03   728s
  33   4.66675272e+07  4.66616268e+07  3.74e-07 1.25e-08  3.44e-03   751s
  34   4.66659836e+07  4.66621859e+07  2.43e-07 3.14e-08  2.21e-03   773s
  35   4.66652949e+07  4.66624570e+07  2.22e-07 6.59e-09  1.65e-03   796s
  36   4.66644686e+07  4.66626649e+07  1.31e-07 1.57e-08  1.05e-03   816s
  37   4.66643188e+07  4.66627753e+07  1.14e-07 5.88e-09  8.99e-04   835s
  38   4.66640919e+07  4.66631217e+07  9.50e-08 8.62e-09  5.65e-04   855s
  39   4.66637802e+07  4.66632686e+07  6.54e-08 1.27e-08  2.98e-04   877s
  40   4.66635515e+07  4.66633139e+07  1.16e-07 1.41e-08  1.38e-04   901s
  41   4.66634720e+07  4.66633415e+07  8.16e-08 1.95e-08  7.60e-05   922s
  42   4.66634062e+07  4.66633423e+07  6.52e-08 6.25e-09  3.72e-05   941s
  43   4.66633799e+07  4.66633431e+07  3.87e-08 1.15e-08  2.14e-05   958s

Barrier solved model in 43 iterations and 957.98 seconds (899.41 work units)
Optimal objective 4.66633799e+07


Root crossover log...

  348980 DPushes remaining with DInf 4.0818330e-02               959s
  140323 DPushes remaining with DInf 5.1045090e+03               964s
  107214 DPushes remaining with DInf 3.4446251e+03               968s
   91498 DPushes remaining with DInf 9.7606098e+02               971s
   72448 DPushes remaining with DInf 7.2700729e+02               976s
   60675 DPushes remaining with DInf 2.2203518e+02               981s
   52759 DPushes remaining with DInf 2.2203518e+02               985s
   43887 DPushes remaining with DInf 2.2203518e+02               991s
   36992 DPushes remaining with DInf 0.0000000e+00               996s
   31328 DPushes remaining with DInf 0.0000000e+00              1001s
   26519 DPushes remaining with DInf 0.0000000e+00              1005s
   23849 DPushes remaining with DInf 0.0000000e+00              1010s
   21458 DPushes remaining with DInf 0.0000000e+00              1016s
   19644 DPushes remaining with DInf 0.0000000e+00              1020s
   16570 DPushes remaining with DInf 0.0000000e+00              1026s
   14097 DPushes remaining with DInf 0.0000000e+00              1031s
   12329 DPushes remaining with DInf 0.0000000e+00              1035s
    9405 DPushes remaining with DInf 0.0000000e+00              1040s
    8012 DPushes remaining with DInf 0.0000000e+00              1045s
    6639 DPushes remaining with DInf 0.0000000e+00              1051s
    5214 DPushes remaining with DInf 0.0000000e+00              1055s
    2859 DPushes remaining with DInf 0.0000000e+00              1061s
    1475 DPushes remaining with DInf 0.0000000e+00              1066s
       0 DPushes remaining with DInf 0.0000000e+00              1070s

  239729 PPushes remaining with PInf 1.0762511e-01              1070s
   34047 PPushes remaining with PInf 4.8653943e-01              1084s
   15115 PPushes remaining with PInf 4.0601644e-01              1086s
    8525 PPushes remaining with PInf 3.5396807e-01              1091s
    2116 PPushes remaining with PInf 3.3077692e-01              1098s
       0 PPushes remaining with PInf 8.0076510e-01              1103s

  Push phase complete: Pinf 8.0076510e-01, Dinf 8.6890206e+06   1103s


Root simplex log...

Iteration    Objective       Primal Inf.    Dual Inf.      Time
  400616    4.6663347e+07   0.000000e+00   8.689021e+06   1105s
  401073    4.6663346e+07   0.000000e+00   4.259414e+05   1110s
  401987    4.6663346e+07   0.000000e+00   6.224335e+03   1115s
  402897    4.6663346e+07   0.000000e+00   0.000000e+00   1122s
  402897    4.6663346e+07   0.000000e+00   0.000000e+00   1124s
Waiting for other threads to finish...        1190s
Waiting for other threads to finish...        1257s
Waiting for other threads to finish...        1326s
Concurrent spin time: 211.04s (can be avoided by choosing Method=3)

Solved with barrier

Root relaxation: objective 4.666335e+07, 402897 iterations, 1282.25 seconds (1097.90 work units)
Total elapsed time = 1335.07s

    Nodes    |    Current Node    |     Objective Bounds      |     Work
 Expl Unexpl |  Obj  Depth IntInf | Incumbent    BestBd   Gap | It/Node Time

     0     0 4.6663e+07    0  688          - 4.6663e+07      -     - 1362s
     0     0 4.6668e+07    0  536          - 4.6668e+07      -     - 1516s
     0     0 4.6668e+07    0  535          - 4.6668e+07      -     - 1518s
H    0     0                    1.133580e+10 4.6668e+07   100%     - 1538s
     0     0 4.6669e+07    0  486 1.1336e+10 4.6669e+07   100%     - 1547s
H    0     0                    1.133577e+10 4.6669e+07   100%     - 1576s
     0     0 4.6669e+07    0  635 1.1336e+10 4.6669e+07   100%     - 2646s
     0     0 4.6669e+07    0  635 1.1336e+10 4.6669e+07   100%     - 2648s
H    0     0                    9.873721e+09 4.6669e+07   100%     - 2822s
     0     0 4.6670e+07    0  438 9.8737e+09 4.6670e+07   100%     - 2878s
     0     0 4.6670e+07    0  445 9.8737e+09 4.6670e+07   100%     - 2951s
     0     0 4.6670e+07    0  430 9.8737e+09 4.6670e+07   100%     - 2958s
     0     0 4.6670e+07    0  424 9.8737e+09 4.6670e+07   100%     - 2962s
     0     0 4.6672e+07    0  447 9.8737e+09 4.6672e+07   100%     - 2996s
     0     0 4.6672e+07    0  449 9.8737e+09 4.6672e+07   100%     - 3043s
     0     0 4.6672e+07    0  446 9.8737e+09 4.6672e+07   100%     - 3046s
     0     0 4.6672e+07    0  434 9.8737e+09 4.6672e+07   100%     - 3098s
     0     0 4.6672e+07    0  432 9.8737e+09 4.6672e+07   100%     - 3171s
     0     0 4.6672e+07    0  425 9.8737e+09 4.6672e+07   100%     - 3176s
     0     0 4.6673e+07    0  426 9.8737e+09 4.6673e+07   100%     - 3226s
     0     0 4.6673e+07    0  430 9.8737e+09 4.6673e+07   100%     - 3280s
     0     0 4.6673e+07    0  430 9.8737e+09 4.6673e+07   100%     - 3284s
     0     0 4.6673e+07    0  429 9.8737e+09 4.6673e+07   100%     - 3311s
     0     0 4.6673e+07    0  429 9.8737e+09 4.6673e+07   100%     - 3374s
     0     0 4.6673e+07    0  414 9.8737e+09 4.6673e+07   100%     - 3401s
     0     0 4.6673e+07    0  414 9.8737e+09 4.6673e+07   100%     - 3439s
     0     0 4.6673e+07    0  412 9.8737e+09 4.6673e+07   100%     - 3467s
     0     0 4.6673e+07    0  412 9.8737e+09 4.6673e+07   100%     - 3528s
     0     0 4.6673e+07    0  422 9.8737e+09 4.6673e+07   100%     - 3557s
     0     0 4.6673e+07    0  423 9.8737e+09 4.6673e+07   100%     - 3610s
     0     0 4.6674e+07    0  406 9.8737e+09 4.6674e+07   100%     - 3641s
     0     0 4.6674e+07    0  405 9.8737e+09 4.6674e+07   100%     - 3644s
     0     0 4.6674e+07    0  405 9.8737e+09 4.6674e+07   100%     - 3650s
     0     0 4.6674e+07    0  379 9.8737e+09 4.6674e+07   100%     - 3678s
     0     0 4.6674e+07    0  381 9.8737e+09 4.6674e+07   100%     - 3685s
     0     0 4.6674e+07    0  376 9.8737e+09 4.6674e+07   100%     - 3713s
     0     0 4.6674e+07    0  378 9.8737e+09 4.6674e+07   100%     - 3752s
     0     0 4.6674e+07    0  361 9.8737e+09 4.6674e+07   100%     - 3757s
     0     0 4.6674e+07    0  347 9.8737e+09 4.6674e+07   100%     - 3783s
     0     0 4.6674e+07    0  347 9.8737e+09 4.6674e+07   100%     - 3794s
     0     0 4.6675e+07    0  381 9.8737e+09 4.6675e+07   100%     - 3825s
     0     0 4.6675e+07    0  381 9.8737e+09 4.6675e+07   100%     - 3857s
     0     0 4.6675e+07    0  384 9.8737e+09 4.6675e+07   100%     - 3886s
     0     0 4.6675e+07    0  341 9.8737e+09 4.6675e+07   100%     - 3927s
     0     0 4.6675e+07    0  341 9.8737e+09 4.6675e+07   100%     - 3951s
     0     0 4.6675e+07    0  337 9.8737e+09 4.6675e+07   100%     - 4028s
     0     2 4.6675e+07    0  336 9.8737e+09 4.6675e+07   100%     - 4140s
     1     4 4.6711e+07    1  399 9.8737e+09 4.6675e+07   100% 17557 4255s
     3     8 4.7175e+07    2  286 9.8737e+09 4.6695e+07   100% 27579 4489s
     7    16 4.7179e+07    3  294 9.8737e+09 4.6698e+07   100% 17042 4703s
    15    24 4.7181e+07    4  279 9.8737e+09 4.6703e+07   100% 12099 4748s
    23    32 4.7183e+07    4  290 9.8737e+09 4.6703e+07   100%  9126 4872s
    31    40 4.7183e+07    5  276 9.8737e+09 4.6711e+07   100%  8402 4930s
    39    47 4.7187e+07    5  263 9.8737e+09 4.6711e+07   100%  6978 4987s
    47    56 4.7186e+07    6  284 9.8737e+09 4.6713e+07   100%  6213 5036s
    56    64 4.7187e+07    6  257 9.8737e+09 4.6713e+07   100%  5509 5096s
H   66    72                    9.866083e+09 4.6713e+07   100%  4923 5257s
H   67    72                    9.865860e+09 4.6713e+07   100%  4870 5258s
H   69    72                    9.864791e+09 4.6713e+07   100%  4747 5258s
H   72    72                    4.918743e+07 4.6713e+07  5.03%  4609 5258s
H   73    72                    4.807616e+07 4.6713e+07  2.84%  4576 5258s

Cutting planes:
  Learned: 1
  Gomory: 114
  Implied bound: 363
  MIR: 142
  Flow cover: 939
  RLT: 51
  Relax-and-lift: 51

Explored 75 nodes (1147050 simplex iterations) in 5258.76 seconds (6010.66 work units)
Thread count was 8 (of 80 available processors)

Solution count 8: 4.80762e+07 4.80762e+07 4.91874e+07 ... 1.13358e+10

Optimal solution found (tolerance 5.00e-02)
Best objective 4.807616160068e+07, best bound 4.671270288774e+07, gap 2.8360%

User-callback calls 791023, time in user-callback 4.29 sec
